c Sudoku solution
p cnf 729 0
121 0
138 0
154 0
186 0
233 0
266 0
289 0
291 0
334 0
274 0
363 0
392 0
436 0
445 0
458 0
248 0
528 0
551 0
341 0
582 0
593 0
173 0
624 0
635 0
575 0
546 0
564 0
796 0
676 0
871 0
883 0
943 0
653 0
972 0
988 0
378 0
698 0
999 0
777 0
914 0
479 0
517 0
539 0
832 0
731 0
937 0
961 0
926 0
856 0
955 0
316 0
165 0
197 0
385 0
784 0
895 0
844 0
867 0
768 0
818 0
829 0
119 0
327 0
142 0
257 0
359 0
749 0
752 0
647 0
462 0
669 0
423 0
612 0
411 0
681 0
215 0
222 0
713 0
725 0
487 0
494 0
